100 2533

31 41
17 27
40 50
40 50
94 104
20 30
2 12
89 99
14 24
44 54
81 91
51 61
49 59
99 109
87 97
27 37
93 103
2 12
68 78
88 98
23 33
4 14
38 48
97 107
87 97
31 41
48 58
46 56
36 46
41 51
38 48
78 88
14 24
94 104
93 103
48 58
46 56
41 51
68 78
49 59
47 57
66 76
78 88
47 57
62 72
48 58
85 95
90 100
59 69
17 27
23 33
69 79
81 91
62 72
40 50
8 18
75 85
4 14
16 26
71 81
82 92
21 31
40 50
72 82
4 14
65 75
65 75
57 67
12 22
61 71
15 25
48 58
3 13
71 81
29 39
96 106
42 52
71 81
16 26
66 76
43 53
59 69
89 99
43 53
5 15
73 83
51 61
83 93
24 34
21 31
43 53
21 31
19 29
47 57
98 108
45 55
54 64
76 86
90 100
43 53
